50	5020

275 375
386 486
129 229
835 935
900 1000
664 764
230 330
850 950
456 556
893 993
35 135
227 327
641 741
162 262
431 531
321 421
682 782
113 213
390 490
565 665
904 1004
696 796
671 771
819 919
974 1074
231 331
586 686
227 327
270 370
506 606
612 712
842 942
95 195
254 354
496 596
62 162
915 1015
221 321
371 471
171 271
922 1022
839 939
373 473
216 316
855 955
662 762
485 585
602 702
745 845
338 438
